NAME          DCAP_2_4_3_500_SS323
ROWS
 N  OBJ
 L  CON1
 L  CON2
 L  CON3
 L  CON4
 L  CON5
 L  CON6
 L  CON7
 L  CON8
 L  CON9
 L  CON10
 L  CON11
 L  CON12
 E  CON13
 E  CON14
 E  CON15
 E  CON16
 E  CON17
 E  CON18
 E  CON19
 E  CON20
 E  CON21
 E  CON22
 E  CON23
 E  CON24
COLUMNS
    x[1,1]    OBJ       6.180167      CON1      1.000000    
    x[1,1]    CON7      -1.000000     CON8      -1.000000   
    x[1,1]    CON9      -1.000000   
    x[1,2]    OBJ       6.563535      CON2      1.000000    
    x[1,2]    CON8      -1.000000     CON9      -1.000000   
    x[1,3]    OBJ       7.443064      CON3      1.000000    
    x[1,3]    CON9      -1.000000   
    x[2,1]    OBJ       6.732585      CON4      1.000000    
    x[2,1]    CON10     -1.000000     CON11     -1.000000   
    x[2,1]    CON12     -1.000000   
    x[2,2]    OBJ       5.039546      CON5      1.000000    
    x[2,2]    CON11     -1.000000     CON12     -1.000000   
    x[2,3]    OBJ       6.054841      CON6      1.000000    
    x[2,3]    CON12     -1.000000   
    MARKER    'MARKER'                'INTORG'
    u[1,1]    OBJ       48.076654     CON1      -1.000000   
    u[1,2]    OBJ       20.066487     CON2      -1.000000   
    u[1,3]    OBJ       32.230043     CON3      -1.000000   
    u[2,1]    OBJ       49.996186     CON4      -1.000000   
    u[2,2]    OBJ       49.466655     CON5      -1.000000   
    u[2,3]    OBJ       27.484319     CON6      -1.000000   
    y[1,1,1]  OBJ       8.773886      CON7      0.609389    
    y[1,1,1]  CON13     1.000000    
    y[1,1,2]  OBJ       7.713942      CON8      1.090340    
    y[1,1,2]  CON14     1.000000    
    y[1,1,3]  OBJ       9.755085      CON9      1.458314    
    y[1,1,3]  CON15     1.000000    
    y[1,2,1]  OBJ       9.332605      CON7      0.937698    
    y[1,2,1]  CON16     1.000000    
    y[1,2,2]  OBJ       7.761364      CON8      0.518518    
    y[1,2,2]  CON17     1.000000    
    y[1,2,3]  OBJ       7.206886      CON9      0.550366    
    y[1,2,3]  CON18     1.000000    
    y[1,3,1]  OBJ       5.013242      CON7      0.721155    
    y[1,3,1]  CON19     1.000000    
    y[1,3,2]  OBJ       6.708645      CON8      0.541229    
    y[1,3,2]  CON20     1.000000    
    y[1,3,3]  OBJ       9.501406      CON9      0.885733    
    y[1,3,3]  CON21     1.000000    
    y[1,4,1]  OBJ       9.871971      CON7      1.327239    
    y[1,4,1]  CON22     1.000000    
    y[1,4,2]  OBJ       7.103046      CON8      1.270374    
    y[1,4,2]  CON23     1.000000    
    y[1,4,3]  OBJ       9.183500      CON9      1.182377    
    y[1,4,3]  CON24     1.000000    
    y[2,1,1]  OBJ       7.469492      CON10     0.609389    
    y[2,1,1]  CON13     1.000000    
    y[2,1,2]  OBJ       8.811413      CON11     1.090340    
    y[2,1,2]  CON14     1.000000    
    y[2,1,3]  OBJ       6.909923      CON12     1.458314    
    y[2,1,3]  CON15     1.000000    
    y[2,2,1]  OBJ       5.707870      CON10     0.937698    
    y[2,2,1]  CON16     1.000000    
    y[2,2,2]  OBJ       9.802689      CON11     0.518518    
    y[2,2,2]  CON17     1.000000    
    y[2,2,3]  OBJ       7.194548      CON12     0.550366    
    y[2,2,3]  CON18     1.000000    
    y[2,3,1]  OBJ       8.893665      CON10     0.721155    
    y[2,3,1]  CON19     1.000000    
    y[2,3,2]  OBJ       8.500914      CON11     0.541229    
    y[2,3,2]  CON20     1.000000    
    y[2,3,3]  OBJ       8.948280      CON12     0.885733    
    y[2,3,3]  CON21     1.000000    
    y[2,4,1]  OBJ       5.143668      CON10     1.327239    
    y[2,4,1]  CON22     1.000000    
    y[2,4,2]  OBJ       6.956610      CON11     1.270374    
    y[2,4,2]  CON23     1.000000    
    y[2,4,3]  OBJ       8.317195      CON12     1.182377    
    y[2,4,3]  CON24     1.000000    
    z[1,1]    OBJ       799.013097    CON13     1.000000    
    z[1,2]    OBJ       578.920391    CON14     1.000000    
    z[1,3]    OBJ       503.528116    CON15     1.000000    
    z[2,1]    OBJ       938.128773    CON16     1.000000    
    z[2,2]    OBJ       702.284914    CON17     1.000000    
    z[2,3]    OBJ       871.141179    CON18     1.000000    
    z[3,1]    OBJ       725.205396    CON19     1.000000    
    z[3,2]    OBJ       914.064011    CON20     1.000000    
    z[3,3]    OBJ       630.912821    CON21     1.000000    
    z[4,1]    OBJ       713.434000    CON22     1.000000    
    z[4,2]    OBJ       559.229203    CON23     1.000000    
    z[4,3]    OBJ       824.167504    CON24     1.000000    
    MARKER    'MARKER'                 'INTEND'
RHS
    RHS       CON1      -0.000000     CON2      -0.000000   
    RHS       CON3      -0.000000     CON4      -0.000000   
    RHS       CON5      -0.000000     CON6      -0.000000   
    RHS       CON7      -0.000000     CON8      -0.000000   
    RHS       CON9      -0.000000     CON10     -0.000000   
    RHS       CON11     -0.000000     CON12     -0.000000   
    RHS       CON13     1.000000      CON14     1.000000    
    RHS       CON15     1.000000      CON16     1.000000    
    RHS       CON17     1.000000      CON18     1.000000    
    RHS       CON19     1.000000      CON20     1.000000    
    RHS       CON21     1.000000      CON22     1.000000    
    RHS       CON23     1.000000      CON24     1.000000    
BOUNDS
 BV BOUND     u[1,1]  
 BV BOUND     u[1,2]  
 BV BOUND     u[1,3]  
 BV BOUND     u[2,1]  
 BV BOUND     u[2,2]  
 BV BOUND     u[2,3]  
 BV BOUND     y[1,1,1]
 BV BOUND     y[1,1,2]
 BV BOUND     y[1,1,3]
 BV BOUND     y[1,2,1]
 BV BOUND     y[1,2,2]
 BV BOUND     y[1,2,3]
 BV BOUND     y[1,3,1]
 BV BOUND     y[1,3,2]
 BV BOUND     y[1,3,3]
 BV BOUND     y[1,4,1]
 BV BOUND     y[1,4,2]
 BV BOUND     y[1,4,3]
 BV BOUND     y[2,1,1]
 BV BOUND     y[2,1,2]
 BV BOUND     y[2,1,3]
 BV BOUND     y[2,2,1]
 BV BOUND     y[2,2,2]
 BV BOUND     y[2,2,3]
 BV BOUND     y[2,3,1]
 BV BOUND     y[2,3,2]
 BV BOUND     y[2,3,3]
 BV BOUND     y[2,4,1]
 BV BOUND     y[2,4,2]
 BV BOUND     y[2,4,3]
 BV BOUND     z[1,1]  
 BV BOUND     z[1,2]  
 BV BOUND     z[1,3]  
 BV BOUND     z[2,1]  
 BV BOUND     z[2,2]  
 BV BOUND     z[2,3]  
 BV BOUND     z[3,1]  
 BV BOUND     z[3,2]  
 BV BOUND     z[3,3]  
 BV BOUND     z[4,1]  
 BV BOUND     z[4,2]  
 BV BOUND     z[4,3]  
ENDATA
